Copyright (C) 2013-2015, Filipe Brandao
Build (method = -2)
  #dp: 459
  Step-3' Graph: 33 vertices and 204 arcs (0.00s)
  Step-4' Graph: 26 vertices and 190 arcs (0.00s)
  #V4/#V3 = 0.79
  #A4/#A3 = 0.93
Ready! (0.00s)
Optimize a model with 59 rows, 191 columns and 527 nonzeros
Found heuristic solution: objective 38
Presolve removed 27 rows and 45 columns
Presolve time: 0.00s
Presolved: 32 rows, 146 columns, 384 nonzeros
Variable types: 0 continuous, 146 integer (97 binary)
Optimize a model with 32 rows, 146 columns and 384 nonzeros
Presolve removed 1 rows and 1 columns
Presolved: 31 rows, 145 columns, 382 nonzeros

Root barrier log...

Ordering time: 0.00s

Barrier statistics:
 AA' NZ     : 1.660e+02
 Factor NZ  : 4.060e+02
 Factor Ops : 6.636e+03 (less than 1 second per iteration)
 Threads    : 1

                  Objective                Residual
Iter       Primal          Dual         Primal    Dual     Compl     Time
   0   8.69038298e+01 -1.24043212e+02  8.25e+01 2.66e-01  1.70e+00     0s
   1   4.36311096e+01 -1.36352254e+01  6.22e+00 3.33e-16  2.50e-01     0s
   2   3.23626309e+01  2.23407855e+01  2.46e-01 1.67e-16  3.53e-02     0s
   3   2.92867193e+01  2.77231884e+01  1.52e-02 5.43e-04  5.39e-03     0s
   4   2.90075157e+01  2.89886798e+01  2.41e-06 2.57e-16  6.41e-05     0s
   5   2.90000000e+01  2.89999999e+01  1.35e-11 2.85e-16  3.74e-10     0s
   6   2.90000000e+01  2.90000000e+01  5.42e-14 4.48e-16  3.80e-16     0s

Barrier solved model in 6 iterations and 0.00 seconds
Optimal objective 2.90000000e+01


Root relaxation: objective 2.900000e+01, 62 iterations, 0.00 seconds

    Nodes    |    Current Node    |     Objective Bounds      |     Work
 Expl Unexpl |  Obj  Depth IntInf | Incumbent    BestBd   Gap | It/Node Time

*    0     0               0      29.0000000   29.00000  0.00%     -    0s

Explored 0 nodes (62 simplex iterations) in 0.00 seconds
Thread count was 1 (of 4 available processors)

Optimal solution found (tolerance 0.00e+00)
Best objective 2.900000000000e+01, best bound 2.900000000000e+01, gap 0.0%
Preprocessing time: 0.00 seconds
Gurobi run time: 0.00 seconds
Total run time: 0.00 seconds
Objective: 29
Solution:
2 x [i=1, i=33]
1 x [i=2, i=33]
2 x [i=3]
1 x [i=4, i=31]
1 x [i=5]
1 x [i=5, i=32]
1 x [i=6]
1 x [i=6, i=29]
1 x [i=7, i=28]
1 x [i=8, i=25]
1 x [i=9, i=25]
1 x [i=10, i=30]
3 x [i=11]
1 x [i=12, i=22]
1 x [i=13, i=21]
3 x [i=14, i=23]
1 x [i=15, i=26]
1 x [i=16]
1 x [i=16, i=20]
1 x [i=16, i=27]
1 x [i=17, i=23]
1 x [i=18, i=24]
1 x [i=19, i=19]
